
--- Job Final_ferroglobe.gms Start 11/26/25 11:44:23 39.1.1 dbf03b78 WEX-WEI x86 64bit/MS Windows
--- Applying:
    C:\GAMS\39\gmsprmNT.txt
--- GAMS Parameters defined
    Input C:\Users\karl\Documents\NTNU9\Master\Prosjektoppgave_dekarbonisering_i_Mo_industripark\Final_ferroglobe.gms
    PageSize 0
    ScrDir C:\Users\karl\Documents\NTNU9\Master\Prosjektoppgave_dekarbonisering_i_Mo_industripark\225a\
    SysDir C:\GAMS\39\
    LogOption 3
    ErrMsg 1
    ErrorLog 99
    IDE 1
    LstTitleLeftAligned 1
Licensee: Small MUD - 5 User License                     S240604|0002AP-GEN
          Norwegian University of Science and Technology             DC7530
          C:\Users\karl\Documents\GAMS\gamslice.txt
          License Admin: Ruud Egging, ruud.egging@ntnu.no                  
Processor information: 1 socket(s), 10 core(s), and 20 thread(s) available
GAMS 39.1.1   Copyright (C) 1987-2022 GAMS Development. All rights reserved
--- Starting compilation
--- Final_ferroglobe.gms(465) 3 Mb
--- Starting execution: elapsed 0:00:00.004
--- Final_ferroglobe.gms(449) 4 Mb
--- Generating LP model production_model
--- Final_ferroglobe.gms(458) 5 Mb
---   1,867 rows  3,092 columns  7,633 non-zeroes
--- Range statistics (absolute non-zero finite values)
--- RHS       [min, max] : [ 4.600E+02, 1.902E+05] - Zero values observed as well
--- Bound     [min, max] : [ 2.500E+05, 1.000E+13] - Zero values observed as well
--- Matrix    [min, max] : [ 3.000E-01, 1.000E+05]
--- Executing CPLEX (Solvelink=2): elapsed 0:00:00.011

IBM ILOG CPLEX   39.1.1 dbf03b78 May 18, 2022          WEI x86 64bit/MS Window

--- GAMS/Cplex licensed for continuous and discrete problems.
--- GMO setup time: 0.00s
--- Space for names approximately 0.15 Mb
--- Use option 'names no' to turn use of names off
--- GMO memory 1.07 Mb (peak 1.10 Mb)
--- Dictionary memory 0.00 Mb
--- Cplex 22.1.0.0 link memory 0.08 Mb (peak 0.38 Mb)
--- Starting Cplex

Version identifier: 22.1.0.0 | 2022-03-09 | 1a383f8ce
CPXPARAM_Advance                                 0
CPXPARAM_Threads                                 1
CPXPARAM_MIP_Display                             4
CPXPARAM_MIP_Pool_Capacity                       0
CPXPARAM_MIP_Tolerances_AbsMIPGap                0
Tried aggregator 1 time.
LP Presolve eliminated 1264 rows and 2296 columns.
Aggregator did 179 substitutions.
Reduced LP has 423 rows, 617 columns, and 1446 nonzeros.
Presolve time = 0.02 sec. (2.51 ticks)
Initializing dual steep norms . . .

Iteration log . . .
Iteration:     1   Dual objective     =      35447689.538462
Iteration:    94   Dual objective     =    1755645562.847087
Iteration:   190   Dual objective     =    2033711890.685180

--- LP status (1): optimal.
--- Cplex Time: 0.02sec (det. 4.26 ticks)


Optimal solution found
Objective:   2165392428.011489

--- Reading solution for model production_model
--- Executing after solve: elapsed 0:00:00.057
--- Final_ferroglobe.gms(460) 5 Mb
--- GDX File (execute_unload) C:\Users\karl\Documents\NTNU9\Master\Prosjektoppgave_dekarbonisering_i_Mo_industripark\Kl4rkus_results.gdx
*** Status: Normal completion
--- Job Final_ferroglobe.gms Stop 11/26/25 11:44:23 elapsed 0:00:00.058
